Route #1: 0 46 37 15 44 17 4 47 0
Route #2: 0 45 33 49 30 50 0
Route #3: 0 16 34 21 29 35 36 0
Route #4: 0 20 3 28 28 31 26 0
Route #5: 0 6 14 24 23 48 0
Route #6: 0 25 13 40 19 42 0
Route #7: 0 41 18 0
Route #8: 0 12 5 9 11 0
Route #9: 0 27 1 32 2 38 0
Route #10: 0 43 7 8 22 39 10 0
Cost 885:
